p cnf 150 200
-9 17 50 51 0
-9 17 50 -51 0
17 20 -50 52 0
17 20 -50 -52 0
17 -20 -50 53 0
17 -20 -50 -53 0
-9 -17 39 54 0
-9 -17 39 -54 0
-9 -17 -39 55 0
-9 -17 -39 -55 0
9 29 43 56 0
9 29 43 -56 0
9 -29 43 57 0
9 -29 43 -57 0
9 10 -43 58 0
9 10 -43 -58 0
-10 -27 -43 59 0
-10 -27 -43 -59 0
4 -10 -43 60 0
4 -10 -43 -60 0
-4 -6 -10 61 0
-4 -6 -10 -61 0
-4 11 -16 62 0
-4 11 -16 -62 0
6 -11 -16 63 0
6 -11 -16 -63 0
-4 6 26 64 0
-4 6 26 -64 0
11 -26 39 65 0
11 -26 39 -65 0
6 -11 39 66 0
6 -11 39 -66 0
-26 32 38 67 0
-26 32 38 -67 0
32 -38 -39 68 0
32 -38 -39 -68 0
12 -26 -32 69 0
12 -26 -32 -69 0
-12 25 -39 70 0
-12 25 -39 -70 0
-13 -25 -32 71 0
-13 -25 -32 -71 0
7 -12 -25 72 0
7 -12 -25 -72 0
-7 28 49 73 0
-7 28 49 -73 0
-7 -25 49 74 0
-7 -25 49 -74 0
-7 33 -49 75 0
-7 33 -49 -75 0
8 -33 -49 76 0
8 -33 -49 -76 0
1 -8 -49 77 0
1 -8 -49 -77 0
-1 -8 21 78 0
-1 -8 21 -78 0
-1 5 36 79 0
-1 5 36 -79 0
-5 -8 36 80 0
-5 -8 36 -80 0
-1 -14 -36 81 0
-1 -14 -36 -81 0
-21 -36 -50 82 0
-21 -36 -50 -82 0
14 24 -36 83 0
14 24 -36 -83 0
14 -24 -38 84 0
14 -24 -38 -84 0
-23 34 50 85 0
-23 34 50 -85 0
-23 -24 -34 86 0
-23 -24 -34 -86 0
23 -24 -34 87 0
23 -24 -34 -87 0
23 34 -42 88 0
23 34 -42 -88 0
28 34 42 89 0
28 34 42 -89 0
-11 -28 42 90 0
-11 -28 42 -90 0
15 -28 42 91 0
15 -28 42 -91 0
23 35 45 92 0
23 35 45 -92 0
-23 -28 45 93 0
-23 -28 45 -93 0
-15 -35 45 94 0
-15 -35 45 -94 0
-15 -17 -45 95 0
-15 -17 -45 -95 0
12 -15 30 96 0
12 -15 30 -96 0
-12 30 -45 97 0
-12 30 -45 -97 0
22 -30 -45 98 0
22 -30 -45 -98 0
-22 -30 -37 99 0
-22 -30 -37 -99 0
-3 -22 -30 100 0
-3 -22 -30 -100 0
3 -22 -47 101 0
3 -22 -47 -101 0
37 40 44 102 0
37 40 44 -102 0
-31 40 44 103 0
-31 40 44 -103 0
4 13 37 104 0
4 13 37 -104 0
13 37 -40 105 0
13 37 -40 -105 0
-13 33 -40 106 0
-13 33 -40 -106 0
-13 -33 44 107 0
-13 -33 44 -107 0
2 3 -44 108 0
2 3 -44 -108 0
-2 -40 -44 109 0
-2 -40 -44 -109 0
27 43 47 110 0
27 43 47 -110 0
-2 16 41 111 0
-2 16 41 -111 0
-16 27 47 112 0
-16 27 47 -112 0
-27 41 47 113 0
-27 41 47 -113 0
41 -44 -47 114 0
41 -44 -47 -114 0
-18 38 -41 115 0
-18 38 -41 -115 0
-2 -18 -38 116 0
-2 -18 -38 -116 0
40 -41 46 117 0
40 -41 46 -117 0
-20 33 -46 118 0
-20 33 -46 -118 0
-20 -33 -41 119 0
-20 -33 -41 -119 0
18 19 28 120 0
18 19 28 -120 0
14 18 19 121 0
14 18 19 -121 0
-14 18 19 122 0
-14 18 19 -122 0
-5 -19 -46 123 0
-5 -19 -46 -123 0
-5 -18 -46 124 0
-5 -18 -46 -124 0
20 21 -35 125 0
20 21 -35 -125 0
-19 20 -35 126 0
-19 20 -35 -126 0
3 35 -48 127 0
3 35 -48 -127 0
-3 -19 -48 128 0
-3 -19 -48 -128 0
29 35 48 129 0
29 35 48 -129 0
-29 31 38 130 0
-29 31 38 -130 0
27 31 48 131 0
27 31 48 -131 0
-29 31 48 132 0
-29 31 48 -132 0
4 12 16 133 0
4 12 16 -133 0
25 26 -42 134 0
25 26 -42 -134 0
-6 13 -37 135 0
-6 13 -37 -135 0
11 25 -37 136 0
11 25 -37 -136 0
8 16 -47 137 0
8 16 -47 -137 0
1 15 -31 138 0
1 15 -31 -138 0
1 10 -21 139 0
1 10 -21 -139 0
-14 22 -42 140 0
-14 22 -42 -140 0
32 -32 36 141 0
32 -32 36 -141 0
2 10 -21 142 0
2 10 -21 -142 0
-3 5 8 143 0
-3 5 8 -143 0
15 21 22 144 0
15 21 22 -144 0
5 7 29 145 0
5 7 29 -145 0
26 -27 50 146 0
26 -27 50 -146 0
30 -31 -48 147 0
30 -31 -48 -147 0
7 -34 46 148 0
7 -34 46 -148 0
-6 24 49 149 0
-6 24 49 -149 0
2 24 46 150 0
2 24 46 -150 0

